2,1,3,2,15,2,10,1,11,1,9,3,13,2,18,2,20,3,3,4,16,2,12,3,13,4,19,4,6,5,14,4,20,5,3,5;3,1,9,1,9,2,3,3,17,2,19,2,13,1,18,1,8,3,4,3,15,3,17,4,14,2,4,4,6,4,11,3,7,3,7,4,12,4,10,5;15,1,1,1,4,1,14,1,20,1,16,1,5,2,12,1,6,2,8,2,9,4,19,3,8,4,8,5,5,4,18,3,16,3,5,5,16,5,17,5,11,5,14,5,7,5;6,1,5,1,1,3,1,4,7,1,17,3,11,2,6,3,20,4,5,3,10,3,18,4,16,4,15,5,11,4,18,5,13,5,1,5,19,5,12,5;17,1,19,1,1,2,8,1,20,2,10,2,4,2,2,2,12,2,7,2,13,3,15,4,14,3,9,5,10,4,2,3,2,4,2,5,4,5;
